% demand
num_movements = 31;
loading_factor = [800, 1150, 850, 1650, 1800, 1150, 950, 800, 1100, 800, 1550, 1650, 1050, 1700, 1600, 1650, 1150, 1750, 850, 1450, 950, 850, 1200, 1950, 1500, 1850, 1700, 1400, 1900, 850, 1750];
pickup_time = [0, 0, 0, 1, 2, 2, 2, 3, 3, 3, 3, 3, 4, 4, 5, 5, 5, 5, 5, 6, 6, 7, 7, 8, 8, 8, 9, 9, 10, 10, 10];
delivery_time = [3, 1, 1, 3, 3, 3, 3, 4, 4, 4, 4, 4, 5, 5, 8, 8, 7, 6, 6, 7, 7, 8, 8, 13, 9, 10, 10, 10, 11, 12, 11];

% transporter definition
total_capacity = 7000;
num_decks = 3;
capacity = [3000, 1000, 3000];

% ways out of decks
num_ways_out = 1;
paths_out = array3d(decks, ways_out, decks, [
% ways out of deck d1
2, 3, 0, 

% ways out of deck d2
3, 0, 0, 

% ways out of deck d3
0, 0, 0,	

]);

